p cnf 949 1192
c ind 680 681 682 695 702 728 789 790 803 810 0
c ind 814 816 819 835 837 840 852 853 872 874 0
c ind 878 889 890 894 895 896 900 902 934 916 0
c ind 925 939 920 930 947 673 788 933 703 915 0
c ind 924 938 919 929 715 946 674 675 787 678 0
c ind 679 786 884 885 883 882 881 903 932 914 0
c ind 923 937 918 928 945 893 931 913 922 936 0
c ind 917 927 944 891 892 908 912 942 880 879 0
c ind 901 888 877 899 897 898 886 887 876 875 0
c ind 868 910 940 909 911 941 921 935 926 943 0
c ind 676 677 905 873 871 869 870 867 860 859 0
c ind 866 906 865 864 863 862 861 858 857 907 0
c ind 856 855 854 672 847 846 844 845 843 842 0
c ind 904 848 849 841 839 850 838 851 836 834 0
c ind 832 833 831 830 829 828 827 826 825 823 0
c ind 824 822 821 820 818 817 815 813 811 812 0
c ind 793 809 804 808 805 806 800 807 802 798 0
c ind 799 801 797 792 796 794 795 791 785 778 0
c ind 770 784 783 782 781 764 763 762 780 761 0
c ind 779 760 759 758 777 776 775 774 773 685 0
c ind 772 771 769 768 767 766 765 757 750 742 0
c ind 756 755 754 753 736 735 734 752 733 751 0
c ind 732 731 730 749 748 747 746 745 744 743 0
c ind 741 740 739 738 737 729 727 725 726 716 0
c ind 717 724 723 722 721 720 718 719 712 711 0
c ind 713 714 710 709 708 707 705 706 704 701 0
c ind 700 696 697 698 699 692 694 691 690 693 0
c ind 684 689 683 688 686 687 1 0
c ret 585 586 587 588 589 590 591 592 593 594 0
c ret 595 596 597 598 599 600 601 602 603 604 0
c ret 605 606 607 608 609 610 611 612 613 614 0
c ret 615 616 617 618 619 620 621 622 623 624 0
c ret 625 626 627 628 629 630 631 632 633 634 0
c ret 635 636 637 638 280 639 640 286 287 288 0
c ret 289 290 291 292 293 294 641 295 642 296 0
c ret 297 298 643 299 644 300 301 302 303 304 0
c ret 305 306 645 307 308 309 646 647 310 311 0
c ret 648 649 312 313 314 315 316 317 318 650 0
c ret 319 320 321 322 281 323 651 652 324 325 0
c ret 326 327 653 654 328 329 330 331 332 333 0
c ret 334 335 336 337 655 656 338 339 340 657 0
c ret 658 341 342 343 344 345 346 347 348 659 0
c ret 349 350 351 352 353 354 660 355 661 356 0
c ret 662 357 663 358 359 360 361 362 363 282 0
c ret 364 664 665 365 366 666 367 368 369 370 0
c ret 371 372 373 374 375 376 377 667 378 379 0
c ret 380 381 382 383 668 384 669 385 670 386 0
c ret 671 387 388 389 390 391 392 393 394 395 0
c ret 396 397 398 399 400 401 402 403 283 404 0
c ret 405 406 407 408 409 410 411 412 413 414 0
c ret 415 416 417 418 419 420 421 422 423 424 0
c ret 425 426 427 428 429 430 431 432 433 434 0
c ret 435 436 437 438 439 440 441 442 443 444 0
c ret 445 446 447 448 449 450 451 452 453 454 0
c ret 455 456 457 458 459 460 461 462 463 464 0
c ret 465 466 467 468 469 470 471 472 473 474 0
c ret 284 475 476 477 478 479 480 481 482 483 0
c ret 484 485 486 487 488 489 490 491 492 493 0
c ret 494 495 496 497 498 499 500 501 502 503 0
c ret 504 505 506 507 508 509 510 511 512 513 0
c ret 285 514 515 516 517 518 519 520 521 522 0
c ret 523 524 525 526 527 528 529 530 531 532 0
c ret 533 534 535 536 537 538 539 540 541 542 0
c ret 543 544 545 546 547 548 549 550 551 552 0
c ret 553 554 555 556 557 558 559 560 561 562 0
c ret 563 564 565 566 567 568 569 570 571 572 0
c ret 573 574 575 576 577 578 579 580 581 582 0
c ret 583 584 0
2 4 5 -275 0
2 3 5 -275 0
-2 275 0
-2 -5 0
-2 -3 -4 0
3 512 0
3 -513 519 0
3 513 520 0
-3 -512 513 -520 0
-3 -512 -513 -519 0
4 512 0
4 -513 -519 0
4 513 -520 0
-4 -512 513 520 0
-4 -512 -513 519 0
5 6 -55 -98 -194 0
5 -6 55 -98 -194 0
-5 194 0
-5 6 55 0
-5 98 0
-5 -6 -55 0
6 -7 -9 0
6 -7 -53 0
6 -7 -51 0
-6 7 0
-6 9 51 53 0
4 7 -8 0
3 7 -8 0
-7 8 0
-3 -4 -7 0
8 -541 -570 -599 0
-8 541 0
-8 570 0
-8 599 0
9 37 -38 0
9 -10 13 -38 0
-9 38 0
-9 -13 -37 0
-9 10 -37 0
10 11 12 0
-10 -11 0
-10 -12 0
11 434 435 436 0
-11 -434 0
-11 -436 0
-11 -435 0
12 442 -444 0
-12 -442 0
-12 444 0
13 -14 660 0
13 14 15 0
-13 -14 -660 0
-13 14 -15 0
14 421 -423 0
-14 -421 0
-14 423 0
15 -16 -659 0
-15 659 0
-15 16 0
16 17 -21 0
-16 -17 0
-16 21 0
17 -18 -312 0
17 -20 -312 0
17 -19 -312 0
-17 312 0
-17 18 19 20 0
18 -313 314 315 0
-18 313 0
-18 -315 0
-18 -314 0
19 318 321 322 0
-19 -318 0
-19 -322 0
-19 -321 0
20 -318 319 320 0
-20 318 0
-20 -320 0
-20 -319 0
21 22 -29 0
21 22 32 -345 0
-21 -22 0
-21 29 -32 0
-21 29 345 0
22 -23 26 0
22 26 366 0
-22 -26 0
-22 23 -366 0
23 -25 369 372 0
23 -24 -25 369 0
-23 -369 0
-23 25 0
-23 24 -372 0
24 370 -371 0
-24 -370 0
-24 371 0
25 367 368 0
-25 -367 0
-25 -368 0
24 -25 26 27 -28 0
25 -26 0
-26 -27 0
-24 -26 0
-26 28 0
27 378 379 0
27 378 386 387 0
-27 -378 0
-27 -379 -386 0
-27 -379 -387 0
28 -366 369 372 -373 0
-28 373 0
-28 -372 0
-28 366 0
-28 -369 0
29 30 -338 0
29 31 -338 -344 0
-29 338 0
-29 -30 344 0
-29 -30 -31 0
30 339 340 341 0
-30 -339 0
-30 -341 0
-30 -340 0
31 342 -343 0
-31 -342 0
-31 343 0
32 33 35 0
-32 -33 0
-32 -35 0
33 -34 344 -350 0
-33 34 0
-33 350 0
-33 -344 0
-30 31 34 -338 -345 0
30 -34 0
-31 -34 0
-34 338 0
-34 345 0
-34 35 -36 -358 0
-34 35 -36 -359 0
-35 36 0
34 -35 0
-35 358 359 0
36 344 350 -351 0
-36 351 0
-36 -350 0
-36 -344 0
12 37 -280 0
37 -280 661 0
-37 280 0
-12 -37 -661 0
38 -39 50 0
-38 39 0
-38 -50 0
39 40 43 0
-39 -40 0
-39 -43 0
40 -41 -42 -465 0
40 -41 -42 -466 0
-40 42 0
-40 41 0
-40 465 466 0
41 468 469 470 471 0
-41 -471 0
-41 -470 0
-41 -468 0
-41 -469 0
42 -462 -463 -464 467 0
-42 464 0
-42 -467 0
-42 462 0
-42 463 0
43 -44 -476 0
43 -45 -476 0
-43 476 0
-43 44 45 0
44 479 -481 0
-44 -479 0
-44 481 0
45 -46 48 -483 0
45 -47 48 483 0
-45 -48 0
-45 46 -483 0
-45 47 483 0
46 -484 485 0
-46 484 0
-46 -485 0
47 507 -509 0
-47 -507 0
-47 509 0
-46 48 49 -476 -483 0
46 -48 0
-48 -49 0
-48 476 0
-48 483 0
49 487 -488 -489 490 0
-49 -487 0
-49 -490 0
-49 489 0
-49 488 0
-13 50 280 -455 0
15 50 280 455 0
-50 -280 0
13 -50 -455 0
-15 -50 455 0
-47 51 -52 -663 0
-51 663 0
47 -51 0
-51 52 0
52 -476 483 0
-52 476 0
-52 -483 0
-44 53 -54 -662 0
-53 662 0
44 -53 0
-53 54 0
45 54 -476 0
-54 476 0
-45 -54 0
55 -56 -93 0
55 -93 868 0
-55 93 0
-55 56 -868 0
56 57 60 0
56 -57 939 0
56 57 -59 0
-56 -57 -939 0
-56 57 59 -60 0
57 -58 875 0
-57 -875 0
-57 58 0
58 899 -901 0
-58 -899 0
-58 901 0
59 -875 -876 877 0
-59 875 0
-59 876 0
-59 -877 0
60 -61 -938 0
60 61 62 -65 0
-60 61 65 0
-60 -61 938 0
-60 61 -62 0
61 871 -873 0
-61 -871 0
-61 873 0
62 -63 -64 -857 0
62 -63 -64 -858 0
-62 64 0
-62 63 0
-62 857 858 0
63 860 861 862 863 0
-63 -863 0
-63 -862 0
-63 -860 0
-63 -861 0
64 -854 -855 -856 859 0
-64 856 0
-64 -859 0
-64 854 0
-64 855 0
65 88 92 0
65 66 88 -89 0
-65 -88 0
-65 -66 -92 0
-65 89 -92 0
66 -67 936 0
66 67 68 0
-66 -67 -936 0
-66 67 -68 0
67 813 -815 0
-67 -813 0
-67 815 0
68 -69 -935 0
-68 935 0
-68 69 0
69 -70 84 0
-69 70 0
-69 -84 0
70 -77 78 0
70 71 78 -737 0
-70 -78 0
-70 -71 77 0
-70 77 737 0
71 72 0
71 75 -736 0
71 75 742 0
-71 -72 -75 0
-71 -72 736 -742 0
72 -73 74 -730 -737 0
-72 73 0
-72 -74 0
-72 730 0
-72 737 0
73 731 732 733 0
-73 -731 0
-73 -733 0
-73 -732 0
74 734 -735 0
-74 -734 0
-74 735 0
75 76 736 742 -743 0
-75 -736 0
-75 -76 0
-75 743 0
-75 -742 0
76 750 751 0
-76 -750 0
-76 -751 0
73 77 -730 0
74 77 -730 -736 0
-77 730 0
-73 -77 736 0
-73 -74 -77 0
78 80 83 0
78 80 -82 0
78 79 80 0
-78 -80 0
-78 -79 82 -83 0
79 759 760 761 0
-79 -759 0
-79 -761 0
-79 -760 0
79 80 -758 0
80 81 -758 -764 0
-80 758 0
-79 -80 764 0
-79 -80 -81 0
81 762 -763 0
-81 -762 0
-81 763 0
82 770 771 0
82 770 778 779 0
-82 -770 0
-82 -771 -778 0
-82 -771 -779 0
81 83 -758 764 -765 0
-83 765 0
-81 -83 0
-83 758 0
-83 -764 0
84 -85 -704 0
84 -87 -704 0
84 -86 -704 0
-84 704 0
-84 85 86 87 0
85 -705 706 707 0
-85 705 0
-85 -707 0
-85 -706 0
86 710 713 714 0
-86 -710 0
-86 -714 0
-86 -713 0
87 -710 711 712 0
-87 710 0
-87 -712 0
-87 -711 0
-66 88 672 -847 0
68 88 672 847 0
-88 -672 0
66 -88 -847 0
-68 -88 847 0
89 90 91 0
-89 -90 0
-89 -91 0
90 834 -836 0
-90 -834 0
-90 836 0
91 826 827 828 0
-91 -826 0
-91 -828 0
-91 -827 0
90 92 -672 0
92 -672 937 0
-92 672 0
-90 -92 -937 0
60 93 94 0
65 93 95 0
93 94 95 0
60 65 93 0
-65 -93 -94 0
-60 -93 -95 0
62 94 868 0
-94 -868 0
-62 -94 0
95 96 -97 0
-95 -96 0
-95 97 0
96 879 -880 -881 882 0
-96 -879 0
-96 -882 0
-96 881 0
-96 880 0
97 -868 -875 -876 877 0
-97 876 0
-97 -877 0
-97 868 0
-97 875 0
98 99 -121 131 -143 0
98 99 121 -131 -143 0
-98 143 0
-98 -121 -131 0
-98 -99 0
-98 121 131 0
99 -100 -110 0
99 100 110 0
-99 100 -110 0
-99 -100 110 0
100 101 109 868 0
100 -107 109 -868 0
-100 -109 0
-100 -101 868 0
-100 107 -868 0
62 101 102 106 0
62 101 102 -105 0
-62 -101 0
-101 -102 0
-101 105 -106 0
102 -104 672 -847 0
102 103 672 847 0
-102 -672 0
-102 104 -847 0
-102 -103 847 0
-69 103 -676 0
-103 676 0
69 -103 0
-67 104 931 0
67 103 104 0
-67 -104 -931 0
67 -103 -104 0
-89 104 105 0
89 -105 0
-104 -105 0
90 106 -672 0
106 -672 932 0
-106 672 0
-90 -106 -932 0
57 107 108 0
-57 107 934 0
57 -59 107 0
-57 -107 -934 0
57 59 -107 -108 0
-61 108 -933 0
61 -101 108 0
-61 -108 933 0
61 101 -108 0
-95 -108 109 0
95 -109 0
108 -109 0
-7 43 110 111 0
-7 110 111 120 0
7 -110 0
-110 -111 0
-43 -110 -120 0
111 -113 114 0
44 111 112 114 0
-111 -114 0
-111 -112 113 0
-44 -111 113 0
-47 112 483 -658 0
47 -112 0
-112 658 0
-112 -483 0
44 113 476 0
113 476 657 0
48 113 476 0
-113 -476 0
-44 -48 -113 -657 0
40 114 115 119 0
40 114 115 -118 0
-40 -114 0
-114 -115 0
-114 118 -119 0
115 -117 280 -455 0
115 116 280 455 0
-115 -280 0
-115 117 -455 0
-115 -116 455 0
-16 116 -284 0
-116 284 0
16 -116 0
-14 117 655 0
14 116 117 0
-14 -117 -655 0
14 -116 -117 0
-10 117 118 0
10 -118 0
-117 -118 0
12 119 -280 0
119 -280 656 0
-119 280 0
-12 -119 -656 0
-45 112 120 0
112 120 657 0
-112 -120 0
45 -120 -657 0
-7 121 -122 0
-7 121 129 0
7 -121 0
-121 122 -129 0
47 -52 122 -123 0
-47 -52 122 -644 0
52 -122 0
47 -122 123 0
-47 -122 644 0
-44 123 -643 0
44 123 -124 0
-44 -123 643 0
44 -123 124 0
40 124 125 128 0
40 124 125 -127 0
-40 -124 0
-124 -125 0
-124 127 -128 0
125 -126 280 -455 0
16 125 280 455 0
-125 -280 0
-125 126 -455 0
-16 -125 455 0
-14 126 641 0
14 16 126 0
-14 -126 -641 0
14 -16 -126 0
-10 126 127 0
10 -127 0
-126 -127 0
12 128 -280 0
128 -280 642 0
-128 280 0
-12 -128 -642 0
129 130 -476 0
123 124 129 0
124 129 130 0
123 129 -476 0
-124 -129 476 0
-123 -129 -130 0
49 130 -476 -483 0
46 130 -476 -483 0
-130 476 0
-130 483 0
-46 -49 -130 0
131 137 140 -868 0
131 132 137 140 0
-131 -140 0
-131 -137 0
-131 -132 868 0
62 132 133 136 0
62 132 133 -135 0
-62 -132 0
-132 -133 0
-132 135 -136 0
133 -134 672 -847 0
69 133 672 847 0
-133 -672 0
-133 134 -847 0
-69 -133 847 0
-67 134 917 0
67 69 134 0
-67 -134 -917 0
67 -69 -134 0
-89 134 135 0
89 -135 0
-134 -135 0
90 136 -672 0
136 -672 918 0
-136 672 0
-90 -136 -918 0
-58 137 -139 -920 0
58 137 -138 -139 0
-137 139 0
-58 -137 920 0
58 -137 138 0
-61 138 -919 0
61 -132 138 0
-61 -138 919 0
61 132 -138 0
139 -868 875 0
-139 868 0
-139 -875 0
-138 140 -141 0
138 -140 0
-140 141 0
96 141 -868 -875 0
141 142 -868 -875 0
-141 868 0
-141 875 0
-96 -141 -142 0
142 -876 877 0
-142 876 0
-142 -877 0
143 144 155 -172 181 0
143 -144 -155 -172 181 0
-143 -181 0
-143 -144 155 0
-143 172 0
-143 144 -155 0
144 -145 146 0
-144 145 0
-144 -146 0
62 97 145 0
62 96 145 0
-62 -145 0
-96 -97 -145 0
146 153 154 0
146 -147 151 0
146 -147 153 0
-146 -151 -153 0
-146 147 -154 0
-146 147 -153 0
147 148 -791 0
147 -150 791 912 0
-147 -148 -791 0
-147 150 791 0
-147 791 -912 0
-70 148 -149 0
70 -148 0
-148 149 0
149 -904 -906 0
84 149 904 0
149 -904 -910 0
-84 -149 904 0
-149 -904 906 910 0
-70 150 -904 906 0
-150 904 0
-150 -906 0
70 -150 0
151 -152 847 848 851 0
-151 152 0
-151 -851 0
-151 -847 0
-151 -848 0
152 849 850 0
-152 -849 0
-152 -850 0
-148 153 672 0
151 153 672 0
-153 -672 0
148 -151 -153 0
91 154 -672 0
-154 672 0
-91 -154 0
155 -160 280 0
11 155 156 -160 0
-155 160 0
-155 -156 -280 0
-11 -155 -280 0
156 157 -399 0
-21 156 -159 399 0
-156 -157 -399 0
21 -156 399 0
-156 159 399 0
-21 157 -158 0
21 -157 0
-157 158 0
158 -628 -630 0
17 158 628 0
158 -628 -634 0
-17 -158 628 0
-158 -628 630 634 0
159 -628 630 636 0
-159 628 0
-159 -636 0
-159 -630 0
156 160 162 -166 0
160 -161 162 -166 0
-160 166 0
-160 -162 0
-156 -160 161 0
161 455 456 0
-161 -455 0
-161 -456 0
-156 162 163 0
157 162 -164 0
-156 157 162 0
162 163 -164 0
156 -162 164 0
-157 -162 -163 0
163 457 458 459 0
-163 -457 0
-163 -459 0
-163 -458 0
164 -165 280 0
-164 -280 0
-164 165 0
-163 165 455 456 0
163 -165 0
-165 -456 0
-165 -455 0
-8 166 167 -170 0
8 -166 0
-166 -167 0
-166 170 0
-3 167 169 512 0
-3 167 -168 169 0
3 -167 0
-167 -169 0
-167 168 -512 0
-4 168 0
168 -521 527 0
168 521 528 0
4 -168 -521 -527 0
4 -168 521 -528 0
4 169 -521 527 0
4 169 521 528 0
-4 -169 0
-169 521 -528 0
-169 -521 -527 0
40 49 170 0
40 170 171 0
40 170 476 0
-40 -170 0
-49 -170 -171 -476 0
-46 171 -483 0
-171 483 0
46 -171 0
-145 172 173 -178 -180 0
-172 180 0
145 -172 0
-172 178 0
-172 -173 0
173 174 -177 0
173 -174 177 0
-173 -174 -177 0
-173 174 177 0
-21 -166 174 -175 176 0
166 -174 0
-174 -176 0
21 -174 0
-174 175 0
175 -628 630 0
-175 628 0
-175 -630 0
-11 176 -280 0
-176 280 0
11 -176 0
-145 -150 177 0
145 -177 0
150 -177 0
84 178 -179 672 0
84 91 178 -179 0
-178 179 0
-84 -178 0
-91 -178 -672 0
179 -675 -676 0
179 -674 677 0
179 -674 -676 0
179 -675 677 0
-179 676 -677 0
-179 674 675 0
-77 78 180 0
71 78 180 0
-78 -180 0
-71 77 -180 0
181 182 -188 0
181 -182 188 0
-181 -182 -188 0
-181 182 188 0
182 -186 280 0
11 182 -183 -186 0
-182 186 0
-182 183 -280 0
-11 -182 -280 0
183 399 -666 0
183 -184 -399 0
-183 184 -399 0
-183 399 666 0
-21 184 -628 0
17 -21 184 185 0
21 -184 0
-184 -185 628 0
-17 -184 628 0
185 291 665 0
-185 -291 0
-185 -665 0
-166 186 187 0
166 -186 0
-186 -187 0
165 183 187 0
183 184 187 0
-165 184 187 280 0
-165 -184 -187 0
165 -183 -187 0
-183 -187 -280 0
-145 188 189 672 0
-145 188 189 -193 0
145 -188 0
-188 -189 0
-188 193 -672 0
151 189 192 0
189 190 192 0
-151 189 190 672 0
-151 -189 -190 0
151 -189 -192 0
-189 -192 -672 0
-70 190 -904 0
-70 84 190 191 0
70 -190 0
-190 -191 904 0
-84 -190 904 0
191 683 941 0
-191 -683 0
-191 -941 0
192 791 -942 0
-190 192 -791 0
190 -192 -791 0
-192 791 942 0
91 -192 193 0
-91 -193 0
192 -193 0
194 -195 236 -246 -256 0
194 -195 -236 246 -256 0
-194 256 0
-194 -236 -246 0
-194 195 0
-194 236 246 0
195 -196 206 -216 226 0
195 196 -206 216 -226 0
195 -196 206 216 -226 0
195 196 -206 -216 226 0
-195 -196 -206 0
-195 196 206 0
-195 216 226 0
-195 -216 -226 0
-7 196 -197 0
-7 196 205 0
7 -196 0
-196 197 -205 0
47 -52 197 -198 0
-47 -52 197 -671 0
52 -197 0
47 -197 198 0
-47 -197 671 0
-44 198 -670 0
44 198 -199 0
-44 -198 670 0
44 -198 199 0
40 199 200 204 0
40 199 200 -203 0
-40 -199 0
-199 -200 0
-199 203 -204 0
200 -202 280 -455 0
200 201 280 455 0
-200 -280 0
-200 202 -455 0
-200 -201 455 0
-16 201 -667 0
-201 667 0
16 -201 0
-14 202 668 0
14 201 202 0
-14 -202 -668 0
14 -201 -202 0
-10 202 203 0
10 -203 0
-202 -203 0
12 204 -280 0
204 -280 669 0
-204 280 0
-12 -204 -669 0
198 205 -476 0
130 199 205 0
198 199 205 0
130 205 -476 0
-130 -198 -205 0
-199 -205 476 0
206 213 215 -868 0
206 207 213 215 0
-206 -215 0
-206 -213 0
-206 -207 868 0
62 207 208 212 0
62 207 208 -211 0
-62 -207 0
-207 -208 0
-207 211 -212 0
208 -210 672 -847 0
208 209 672 847 0
-208 -672 0
-208 210 -847 0
-208 -209 847 0
-69 209 -943 0
-209 943 0
69 -209 0
-67 210 944 0
67 209 210 0
-67 -210 -944 0
67 -209 -210 0
-89 210 211 0
89 -211 0
-210 -211 0
90 212 -672 0
212 -672 945 0
-212 672 0
-90 -212 -945 0
58 -139 213 -214 0
-58 -139 213 -947 0
139 -213 0
58 -213 214 0
-58 -213 947 0
-61 214 -946 0
61 -207 214 0
-61 -214 946 0
61 207 -214 0
-141 -214 215 0
141 -215 0
214 -215 0
-7 216 -217 0
-7 216 225 0
7 -216 0
-216 217 -225 0
47 -52 217 -218 0
-47 -52 217 -640 0
52 -217 0
47 -217 218 0
-47 -217 640 0
-44 218 -639 0
44 218 -219 0
-44 -218 639 0
44 -218 219 0
40 219 220 224 0
40 219 220 -223 0
-40 -219 0
-219 -220 0
-219 223 -224 0
220 221 -280 638 0
12 220 221 -280 0
-220 280 0
-220 -221 0
-12 -220 -638 0
-10 221 222 0
10 -221 0
-221 -222 0
14 16 222 0
-14 222 637 0
14 222 285 0
-14 -222 -637 0
14 -16 -222 -285 0
14 -16 223 -285 0
-16 223 -285 455 0
16 -223 0
-223 285 0
-14 -223 -455 0
224 280 637 0
224 280 455 0
14 224 280 0
-224 -280 0
-14 -224 -455 -637 0
218 225 -476 0
130 219 225 0
218 219 225 0
130 225 -476 0
-130 -218 -225 0
-219 -225 476 0
226 233 235 -868 0
226 227 233 235 0
-226 -235 0
-226 -233 0
-226 -227 868 0
62 227 228 232 0
62 227 228 -231 0
-62 -227 0
-227 -228 0
-227 231 -232 0
228 229 -672 914 0
90 228 229 -672 0
-228 672 0
-228 -229 0
-90 -228 -914 0
-89 229 230 0
89 -229 0
-229 -230 0
67 69 230 0
-67 230 913 0
67 230 677 0
-67 -230 -913 0
67 -69 -230 -677 0
67 -69 231 -677 0
-69 231 -677 847 0
69 -231 0
-231 677 0
-67 -231 -847 0
232 672 913 0
232 672 847 0
67 232 672 0
-232 -672 0
-67 -232 -847 -913 0
58 -139 233 -234 0
-58 -139 233 -916 0
139 -233 0
58 -233 234 0
-58 -233 916 0
-61 234 -915 0
61 -227 234 0
-61 -234 915 0
61 227 -234 0
-141 -234 235 0
141 -235 0
234 -235 0
-7 236 -237 0
-7 236 245 0
7 -236 0
-236 237 -245 0
47 -52 237 -238 0
-47 -52 237 -649 0
52 -237 0
47 -237 238 0
-47 -237 649 0
-44 238 -648 0
44 238 -239 0
-44 -238 648 0
44 -238 239 0
40 239 240 244 0
40 239 240 -243 0
-40 -239 0
-239 -240 0
-239 243 -244 0
240 -242 280 -455 0
240 241 280 455 0
-240 -280 0
-240 242 -455 0
-240 -241 455 0
-16 241 -645 0
-241 645 0
16 -241 0
-14 242 646 0
14 241 242 0
-14 -242 -646 0
14 -241 -242 0
-10 242 243 0
10 -243 0
-242 -243 0
12 244 -280 0
244 -280 647 0
-244 280 0
-12 -244 -647 0
238 245 -476 0
130 239 245 0
238 239 245 0
130 245 -476 0
-130 -238 -245 0
-239 -245 476 0
246 253 255 -868 0
246 247 253 255 0
-246 -255 0
-246 -253 0
-246 -247 868 0
62 247 248 252 0
62 247 248 -251 0
-62 -247 0
-247 -248 0
-247 251 -252 0
248 -250 672 -847 0
248 249 672 847 0
-248 -672 0
-248 250 -847 0
-248 -249 847 0
-69 249 -921 0
-249 921 0
69 -249 0
-67 250 922 0
67 249 250 0
-67 -250 -922 0
67 -249 -250 0
-89 250 251 0
89 -251 0
-250 -251 0
90 252 -672 0
252 -672 923 0
-252 672 0
-90 -252 -923 0
58 -139 253 -254 0
-58 -139 253 -925 0
139 -253 0
58 -253 254 0
-58 -253 925 0
-61 254 -924 0
61 -247 254 0
-61 -254 924 0
61 247 -254 0
-141 -254 255 0
141 -255 0
254 -255 0
256 257 -266 0
256 -257 266 0
-256 -257 -266 0
-256 257 266 0
-7 257 -258 0
-7 257 -265 0
-7 257 -264 0
7 -257 0
-257 258 264 265 0
258 261 -262 0
-10 258 259 -262 0
-258 262 0
-258 -259 -261 0
10 -258 -261 0
-14 259 651 0
14 259 260 0
-14 -259 -651 0
14 -259 -260 0
-16 260 -650 0
-260 650 0
16 -260 0
12 261 -280 0
261 -280 652 0
-261 280 0
-12 -261 -652 0
-39 262 263 0
39 -262 0
-262 -263 0
-259 263 280 -455 0
260 263 280 455 0
-263 -280 0
259 -263 -455 0
-260 -263 455 0
-47 -52 264 -654 0
-264 654 0
47 -264 0
52 -264 0
-44 -54 265 -653 0
-265 653 0
44 -265 0
54 -265 0
266 -267 -274 0
266 -274 868 0
-266 274 0
-266 267 -868 0
57 267 268 0
-57 267 930 0
57 -59 267 0
-57 -267 -930 0
57 59 -267 -268 0
-61 268 -929 0
61 62 268 -269 0
61 -268 269 0
-61 -268 929 0
61 -62 -268 0
269 272 273 0
-89 269 270 273 0
-269 -273 0
-269 -270 -272 0
89 -269 -272 0
-67 270 927 0
67 270 271 0
-67 -270 -927 0
67 -270 -271 0
-69 271 -926 0
-271 926 0
69 -271 0
90 272 -672 0
272 -672 928 0
-272 672 0
-90 -272 -928 0
-270 273 672 -847 0
271 273 672 847 0
-273 -672 0
270 -273 -847 0
-271 -273 847 0
95 269 274 0
94 268 274 0
268 269 274 0
94 95 274 0
-94 -269 -274 0
-95 -268 -274 0
17 -170 275 276 -277 0
170 -275 0
-275 -276 0
-17 -275 0
-275 277 0
29 33 35 276 0
-29 -276 0
-35 -276 0
-33 -276 0
22 277 -278 -541 0
-277 541 0
-22 -277 0
-277 278 0
176 278 -279 285 0
176 278 -279 -284 0
-278 279 0
-176 -278 0
-278 284 -285 0
279 -282 -570 -599 0
279 -283 -570 -599 0
-279 599 0
-279 570 0
-279 282 283 0
1 2 0
-1 -2 0
948 0

